% Input data

int: M = 15; % Number of tickets
int: N = 3; % Number of agents

% Time, in hours, required to perform each tasks
array[1..M] of var 1..8: TT = [4, 3, 3, 5, 1, 2, 3, 4, 2, 1, 3, 2, 5, 2, 3];

% Priority of each ticket, 3 is the highest
array[1..M] of var 1..3: PT = [3, 3, 2, 3, 1, 2, 1, 3, 2, 1, 2, 1, 3, 1, 3];